0 2779
1 2748
2 2742
3 2702
4 2365
5 2365
6 2324
7 2137
8 2037
9 2037
10 1939
11 1931
12 1803
13 1803
14 1803
15 1803
16 1803
17 1719
18 1693
19 1688
20 1667
21 1629
22 1629
23 1566
24 1481
25 1481
26 1481
27 1481
28 1481
29 1416
30 1416
31 1416
32 1399
33 1399
34 1386
35 1386
36 1386
37 1386
38 1376
39 1376
40 1376
41 1374
42 1374
43 1358
44 1354
45 1354
46 1347
47 1342
48 1342
49 1328
50 1321
51 1321
52 1320
53 1306
54 1289
55 1289
56 1289
57 1273
58 1273
59 1273
60 1264
61 1250
62 1247
63 1247
64 1239
65 1228
66 1228
67 1228
68 1228
69 1228
70 1228
71 1224
72 1222
73 1222
74 1202
75 1202
76 1202
77 1197
78 1197
79 1178
80 1178
81 1178
82 1178
83 1178
84 1178
85 1178
86 1177
87 1169
88 1156
89 1156
90 1156
91 1156
92 1156
93 1156
94 1156
95 1151
96 1151
97 1142
98 1142
99 1134
100 1134
101 1134
102 1134
103 1131
104 1131
105 1131
106 1127
107 1127
108 1127
109 1127
110 1127
111 1127
112 1117
113 1117
114 1110
115 1106
116 1106
117 1103
118 1094
119 1094
120 1094
121 1094
122 1094
123 1085
124 1082
125 1082
126 1082
127 1082
128 1072
129 1072
130 1072
131 1060
132 1060
133 1060
134 1050
135 1050
136 1047
137 1047
138 1047
139 1047
140 1047
141 1047
142 1047
143 1047
144 1047
145 1047
146 1047
147 1047
148 1047
149 1047
150 1043
151 1040
152 1039
153 1038
154 1038
155 1038
156 1038
157 1036
158 1036
159 1036
160 1036
161 1036
162 1036
163 1036
164 1032
165 1032
166 1032
167 1032
168 1032
169 1020
170 1020
171 1020
172 1020
173 1020
174 1020
175 1020
176 1020
177 1020
178 1020
179 1020
180 1020
181 1020
182 1020
183 1020
184 1020
185 1020
186 1020
187 1020
188 1020
189 1020
190 1020
191 1020
192 1020
193 1020
194 1020
195 1020
196 1020
197 1020
198 1020
199 1020
200 1020
201 1020
202 1020
203 1020
204 1020
205 1019
206 1019
207 1019
208 1019
209 1019
210 1019
211 1019
212 1019
213 1013
214 1013
215 1013
216 1013
217 1013
218 1013
219 1013
220 1013
221 1013
222 1013
223 1013
224 1013
225 1010
226 1010
227 1010
228 1010
229 1010
230 1010
231 1010
232 1010
233 1010
234 1010
235 1009
236 1009
237 1009
238 1009
239 1009
240 1009
241 1009
242 1009
243 1009
244 1008
245 1008
246 1008
247 1008
248 1004
249 1004
250 1004
251 1004
252 1004
253 1004
254 1004
255 1004
256 1004
257 1004
258 1004
259 1004
260 1004
261 1004
262 1004
263 1004
264 1004
265 1004
266 1003
267 1003
268 1003
269 1003
270 1003
271 1003
272 1003
273 1003
274 1003
275 1003
276 1003
277 1003
278 1003
279 1003
280 1003
281 1003
282 1003
283 1003
284 1003
285 1003
286 1003
287 1003
288 1003
289 1003
290 1003
291 1003
292 995
293 995
294 995
295 995
296 995
297 995
298 995
299 995
300 995
301 995
302 995
303 995
304 995
305 995
306 995
307 995
308 995
309 995
310 995
311 995
312 995
313 995
314 995
315 995
316 995
317 995
318 995
319 995
320 995
321 995
322 995
323 995
324 995
325 995
326 995
327 995
328 995
329 995
330 995
331 995
332 995
333 995
334 995
335 995
336 995
337 995
338 995
339 995
340 995
341 995
342 995
343 995
344 995
345 995
346 995
347 995
348 995
349 995
350 995
351 995
352 995
353 995
354 995
355 995
356 995
357 995
358 995
359 995
360 995
361 995
362 995
363 995
364 995
365 995
366 995
367 995
368 995
369 995
370 995
371 995
372 995
373 995
374 995
375 995
376 995
377 995
378 995
379 995
380 995
381 995
382 995
383 995
384 995
385 995
386 995
387 995
388 995
389 995
390 995
391 995
392 995
393 995
394 995
395 995
396 995
397 995
398 995
399 995
400 995
401 995
402 995
403 995
404 995
405 995
406 995
407 995
408 995
409 995
410 995
411 995
412 995
413 995
414 995
415 995
416 995
417 995
418 995
419 995
420 995
421 995
422 995
423 995
424 995
425 995
426 995
427 995
428 995
429 995
430 995
431 995
432 995
433 995
434 995
435 995
436 995
437 995
438 995
439 995
440 995
441 995
442 995
443 995
444 995
445 995
446 995
447 995
448 995
449 995
450 995
451 995
452 995
453 995
454 995
455 995
456 995
457 995
458 995
459 995
460 995
461 995
462 995
463 995
464 995
465 995
466 995
467 995
468 995
469 995
470 995
471 995
472 995
473 995
474 995
475 995
476 995
477 995
478 995
479 995
480 995
481 995
482 995
483 995
484 995
485 995
486 995
487 995
488 995
489 995
490 995
491 995
492 995
493 995
494 995
495 995
496 995
497 995
498 995
499 995
500 995
501 995
502 995
503 995
504 995
505 995
506 995
507 995
508 995
509 995
510 995
511 995
512 995
513 995
514 995
515 995
516 995
517 995
518 995
519 995
520 995
521 995
522 995
523 995
524 995
525 995
526 995
527 995
528 995
529 995
530 995
531 995
532 995
533 995
534 995
535 995
536 995
537 995
538 995
539 995
540 995
541 995
542 995
543 995
544 995
545 995
546 995
547 995
548 995
549 995
550 995
551 995
552 995
553 995
554 995
555 995
556 995
557 995
558 995
559 995
560 995
561 995
562 995
563 995
564 995
565 995
566 995
567 995
568 995
569 995
570 995
571 995
572 995
573 995
574 995
575 995
576 995
577 995
578 995
579 995
580 995
581 995
582 995
583 995
584 995
585 995
586 995
587 995
588 995
589 995
590 995
591 995
592 995
593 995
594 995
595 995
596 995
597 995
598 995
599 995
600 995
601 995
602 995
603 995
604 995
605 995
606 995
607 995
608 995
609 995
610 995
611 995
612 995
613 995
614 995
615 995
616 995
617 995
618 995
619 995
620 995
621 995
622 995
623 995
624 995
625 995
626 995
627 995
628 995
629 995
630 995
631 995
632 995
633 995
634 995
635 995
636 995
637 995
638 995
639 995
640 995
641 995
642 995
643 995
644 995
645 995
646 995
647 995
648 995
649 995
650 995
651 995
652 995
653 995
654 995
655 995
656 995
657 995
658 995
659 995
660 995
661 995
662 995
663 995
664 995
665 995
666 995
667 995
668 995
669 995
670 995
671 995
672 995
673 995
674 995
675 995
676 995
677 995
678 995
679 995
680 995
681 995
682 995
683 995
684 995
685 995
686 995
687 995
688 995
689 995
690 995
691 995
692 995
693 995
694 995
695 995
696 995
697 995
698 995
699 995
700 995
701 995
702 995
703 995
704 995
705 995
706 995
707 995
708 995
709 995
710 995
711 995
712 995
713 995
714 995
715 995
716 995
717 995
718 995
719 995
720 995
721 995
722 995
723 995
724 995
725 995
726 995
727 995
728 995
729 995
730 995
731 995
732 995
733 995
734 995
735 995
736 995
737 995
738 995
739 995
740 995
741 995
742 995
743 995
744 995
745 995
746 995
747 995
748 995
749 995
750 995
751 995
752 995
753 995
754 995
755 995
756 995
757 995
758 995
759 995
760 995
761 995
762 995
763 995
764 995
765 995
766 995
767 995
768 995
769 995
770 995
771 995
772 995
773 995
774 995
775 995
776 995
777 995
778 995
779 995
780 995
781 995
782 995
783 995
784 995
785 995
786 995
787 995
788 995
789 995
790 995
791 995
792 995
793 995
794 995
795 995
796 995
797 995
798 995
799 995
800 995
801 995
802 995
803 995
804 995
805 995
806 995
807 995
808 995
809 995
810 995
811 995
812 995
813 995
814 995
815 995
816 995
817 995
818 995
819 995
820 995
821 995
822 995
823 995
824 995
825 995
826 995
827 995
828 995
829 995
830 995
831 995
832 995
833 995
834 995
835 995
836 995
837 995
838 995
839 995
840 995
841 995
842 995
843 995
844 995
845 995
846 995
847 995
848 995
849 995
850 995
851 995
852 995
853 995
854 995
855 995
856 995
857 995
858 995
859 995
860 995
861 995
862 995
863 995
864 995
865 995
866 995
867 995
868 995
869 995
870 995
871 995
872 995
873 995
874 995
875 995
876 995
877 995
878 995
879 995
880 995
881 995
882 995
883 995
884 995
885 995
886 995
887 995
888 995
889 995
890 995
891 995
892 995
893 995
894 995
895 995
896 995
897 995
898 995
899 995
900 995
901 995
902 995
903 995
904 995
905 995
906 995
907 995
908 995
909 995
910 995
911 995
912 995
913 995
914 995
915 995
916 995
917 995
918 995
919 995
920 995
921 995
922 995
923 995
924 995
925 995
926 995
927 995
928 995
929 995
930 995
931 995
932 995
933 995
934 995
935 995
936 995
937 995
938 995
939 995
940 995
941 995
942 995
943 995
944 995
945 995
946 995
947 995
948 995
949 995
950 995
951 995
952 995
953 995
954 995
955 995
956 995
957 995
958 995
959 995
960 995
961 995
962 995
963 995
964 995
965 995
966 995
967 995
968 995
969 995
970 995
971 995
972 995
973 995
974 995
975 995
976 995
977 995
978 995
979 995
980 995
981 995
982 995
983 995
984 995
985 995
986 995
987 995
988 995
989 995
990 995
991 995
992 995
993 995
994 995
995 995
996 995
997 995
998 995
999 995
Best: [[8,36,26,17],
       [18,10,22,13,12,11],
       [15,7,37,30,25],
       [14,31,16,33,28],
       [19,20,34,3,29,24,23,27,5],
       [21,9,6,4,2,32,35]], fitness: 995
